# Solution for model s-icep
# Objective value = 2.4547054435724963e+05
flowLmbda[0,0,0] 50
flowBeta[0,0,0,0,0] 24
flowBeta[0,0,0,0,1] 0
flowBeta[0,0,1,0,0] 24
flowBeta[0,0,1,0,1] 0
flowBeta[0,0,2,0,0] 2.3999920545300011e+01
flowBeta[0,0,2,0,1] 7.9454699991238220e-05
flowBeta[0,0,3,0,0] 0
flowBeta[0,0,3,0,1] 24
flowBeta[0,0,4,0,0] 24
flowBeta[0,0,4,0,1] 0
flowBeta[0,0,5,0,0] 1.3877787807814457e-17
flowBeta[0,0,5,0,1] 24
flowBeta[0,0,6,0,0] 0
flowBeta[0,0,6,0,1] 24
flowBeta[0,0,7,0,0] 24
flowBeta[0,0,7,0,1] 0
flowBeta[0,0,8,0,0] 0
flowBeta[0,0,8,0,1] 24
flowBeta[0,1,0,0,0] 0
flowBeta[0,1,0,0,1] 0
flowBeta[0,1,1,0,0] 0
flowBeta[0,1,1,0,1] 0
flowBeta[0,1,2,0,0] 0
flowBeta[0,1,2,0,1] 0
flowBeta[0,1,3,0,0] 0
flowBeta[0,1,3,0,1] 0
flowBeta[0,1,4,0,0] 0
flowBeta[0,1,4,0,1] 0
flowBeta[0,1,5,0,0] 0
flowBeta[0,1,5,0,1] 0
flowBeta[0,1,6,0,0] 0
flowBeta[0,1,6,0,1] 0
flowBeta[0,1,7,0,0] 0
flowBeta[0,1,7,0,1] 0
flowBeta[0,1,8,0,0] 0
flowBeta[0,1,8,0,1] 0
flowGamma[0,0,0,0,0] 24
flowGamma[0,0,0,1,0] 0
flowGamma[0,0,1,0,0] 24
flowGamma[0,0,1,1,0] 0
flowGamma[0,0,2,0,0] 2.3999920545300011e+01
flowGamma[0,0,2,1,0] 7.9454699991238220e-05
flowGamma[0,0,3,0,0] 0
flowGamma[0,0,3,1,0] 24
flowGamma[0,0,4,0,0] 24
flowGamma[0,0,4,1,0] 0
flowGamma[0,0,5,0,0] 1.3877787807814457e-17
flowGamma[0,0,5,1,0] 24
flowGamma[0,0,6,0,0] 0
flowGamma[0,0,6,1,0] 24
flowGamma[0,0,7,0,0] 24
flowGamma[0,0,7,1,0] 0
flowGamma[0,0,8,0,0] 0
flowGamma[0,0,8,1,0] 24
flowGamma[0,1,0,0,0] 0
flowGamma[0,1,0,1,0] 0
flowGamma[0,1,1,0,0] 0
flowGamma[0,1,1,1,0] 0
flowGamma[0,1,2,0,0] 0
flowGamma[0,1,2,1,0] 0
flowGamma[0,1,3,0,0] 0
flowGamma[0,1,3,1,0] 0
flowGamma[0,1,4,0,0] 0
flowGamma[0,1,4,1,0] 0
flowGamma[0,1,5,0,0] 0
flowGamma[0,1,5,1,0] 0
flowGamma[0,1,6,0,0] 0
flowGamma[0,1,6,1,0] 0
flowGamma[0,1,7,0,0] 0
flowGamma[0,1,7,1,0] 0
flowGamma[0,1,8,0,0] 0
flowGamma[0,1,8,1,0] 0
flowEpsilon[0,0,0,0,0] 24
flowEpsilon[0,0,1,0,0] 24
flowEpsilon[0,0,2,0,0] 2.4000000000000004e+01
flowEpsilon[0,0,3,0,0] 24
flowEpsilon[0,0,4,0,0] 24
flowEpsilon[0,0,5,0,0] 24
flowEpsilon[0,0,6,0,0] 24
flowEpsilon[0,0,7,0,0] 24
flowEpsilon[0,0,8,0,0] 24
flowEpsilon[0,1,0,0,0] 0
flowEpsilon[0,1,1,0,0] 0
flowEpsilon[0,1,2,0,0] 0
flowEpsilon[0,1,3,0,0] 0
flowEpsilon[0,1,4,0,0] 0
flowEpsilon[0,1,5,0,0] 0
flowEpsilon[0,1,6,0,0] 0
flowEpsilon[0,1,7,0,0] 0
flowEpsilon[0,1,8,0,0] 0
zetaSelect[0,0,0,0] 1
zetaSelect[0,0,0,1] 0
zetaSelect[0,1,0,0] 0
zetaSelect[0,1,0,1] 0
gammaSelect[0,0,0,0,0] 1
gammaSelect[0,0,0,1,0] 0
gammaSelect[0,0,1,0,0] 1
gammaSelect[0,0,1,1,0] 0
gammaSelect[0,0,2,0,0] 9.9999668938908215e-01
gammaSelect[0,0,2,1,0] 3.31060941337606e-06
gammaSelect[0,0,3,0,0] 0
gammaSelect[0,0,3,1,0] 1
gammaSelect[0,0,4,0,0] 1
gammaSelect[0,0,4,1,0] 0
gammaSelect[0,0,5,0,0] 0
gammaSelect[0,0,5,1,0] 1
gammaSelect[0,0,6,0,0] 0
gammaSelect[0,0,6,1,0] 1
gammaSelect[0,0,7,0,0] 1
gammaSelect[0,0,7,1,0] 0
gammaSelect[0,0,8,0,0] 0
gammaSelect[0,0,8,1,0] 1
gammaSelect[0,1,0,0,0] 0
gammaSelect[0,1,0,1,0] 0
gammaSelect[0,1,1,0,0] 0
gammaSelect[0,1,1,1,0] 0
gammaSelect[0,1,2,0,0] 0
gammaSelect[0,1,2,1,0] 0
gammaSelect[0,1,3,0,0] 0
gammaSelect[0,1,3,1,0] 0
gammaSelect[0,1,4,0,0] 0
gammaSelect[0,1,4,1,0] 0
gammaSelect[0,1,5,0,0] 0
gammaSelect[0,1,5,1,0] 0
gammaSelect[0,1,6,0,0] 0
gammaSelect[0,1,6,1,0] 0
gammaSelect[0,1,7,0,0] 0
gammaSelect[0,1,7,1,0] 0
gammaSelect[0,1,8,0,0] 0
gammaSelect[0,1,8,1,0] 0
deltaSelect[0,0,0,0,0] 1
deltaSelect[0,0,0,0,1] 0
deltaSelect[0,0,1,0,0] 9.9999668938836084e-01
deltaSelect[0,0,1,0,1] 3.3106116413445297e-06
deltaSelect[0,0,2,0,0] 0
deltaSelect[0,0,2,0,1] 1
deltaSelect[0,0,3,0,0] 1
deltaSelect[0,0,3,0,1] 0
deltaSelect[0,0,4,0,0] 0
deltaSelect[0,0,4,0,1] 1
deltaSelect[0,0,5,0,0] 0
deltaSelect[0,0,5,0,1] 1
deltaSelect[0,0,6,0,0] 1
deltaSelect[0,0,6,0,1] 0
deltaSelect[0,0,7,0,0] 0
deltaSelect[0,0,7,0,1] 1
deltaSelect[0,0,8,0,0] 1
deltaSelect[0,0,8,0,1] 3.3106124996350568e-06
deltaSelect[0,1,0,0,0] 0
deltaSelect[0,1,0,0,1] 0
deltaSelect[0,1,1,0,0] 0
deltaSelect[0,1,1,0,1] 0
deltaSelect[0,1,2,0,0] 0
deltaSelect[0,1,2,0,1] 0
deltaSelect[0,1,3,0,0] 0
deltaSelect[0,1,3,0,1] 0
deltaSelect[0,1,4,0,0] 0
deltaSelect[0,1,4,0,1] 0
deltaSelect[0,1,5,0,0] 0
deltaSelect[0,1,5,0,1] 0
deltaSelect[0,1,6,0,0] 0
deltaSelect[0,1,6,0,1] 0
deltaSelect[0,1,7,0,0] 0
deltaSelect[0,1,7,0,1] 0
deltaSelect[0,1,8,0,0] 0
deltaSelect[0,1,8,0,1] 0
timeForResourceI[0,0] 7470
timeForResourceI[0,1] 0
isResInFleet[0] 1
isResInFleet[1] 0
numNotEva[0,0] 34
meanCost 2.4547013957399104e+05
C_zxi[0] 2.4547013957399104e+05
totalTime[0] 7470
